p tw 246 269
1 2
2 113
3 14
4 5
5 6
6 7
7 8
8 9
9 10
10 11
11 12
12 13
13 15
13 31
14 25
14 105
15 16
16 17
17 18
18 19
19 20
20 21
21 22
21 26
22 23
23 24
23 26
24 26
25 36
26 27
27 28
28 29
29 30
30 31
31 32
32 33
33 34
34 35
35 37
36 47
36 83
37 38
37 40
38 39
39 42
40 41
41 42
42 43
43 44
44 45
45 46
46 48
47 58
48 146
49 50
50 51
51 52
52 53
53 54
54 55
55 56
55 59
56 57
57 61
58 69
58 76
59 60
60 61
61 62
62 63
63 64
64 65
65 66
66 67
67 68
68 70
69 80
70 71
71 72
72 73
73 74
74 75
75 146
76 77
77 78
78 79
79 81
80 91
80 167
81 82
82 146
83 84
84 85
85 86
86 87
87 88
88 89
89 90
90 92
91 102
92 93
93 94
94 95
95 96
96 97
97 98
98 99
99 100
100 146
101 103
102 114
102 49
103 104
103 105
104 163
105 106
106 107
107 108
108 109
109 110
110 111
111 112
112 115
113 170
113 214
114 125
115 116
116 117
117 118
118 119
119 120
119 140
120 121
121 122
121 127
122 123
122 127
123 124
124 126
125 136
125 49
126 131
127 128
128 129
129 130
130 131
131 132
132 133
133 134
133 117
134 135
135 137
136 147
137 138
138 139
139 117
140 141
141 142
142 143
143 144
144 145
145 163
146 148
147 158
147 241
148 149
149 150
150 151
151 152
152 153
153 154
153 161
154 155
155 156
156 157
157 159
158 165
159 160
160 161
161 162
162 163
163 164
165 166
165 196
166 101
167 168
168 169
169 171
170 181
171 172
172 173
173 174
174 175
175 176
176 177
177 178
178 179
179 180
180 182
181 192
182 183
183 184
184 185
184 187
185 186
186 189
187 188
188 189
189 190
190 191
191 193
192 203
193 194
194 195
195 146
196 197
197 198
198 199
199 200
200 201
201 202
202 204
203 236
204 205
205 206
206 207
207 208
208 209
209 210
210 211
211 212
212 213
213 215
214 225
215 216
216 217
217 218
218 219
218 224
219 220
220 221
221 222
222 223
223 237
224 226
225 236
226 227
226 232
227 228
228 229
229 230
230 231
231 234
232 233
233 234
234 235
235 237
236 3
237 238
238 239
239 240
239 146
240 163
241 242
242 243
243 244
244 245
245 246
246 4
